
List of user-set options:

                                    Name   Value                used
                           compl_inf_tol = 1                     yes
                         constr_viol_tol = 1                     yes
                            dual_inf_tol = 1000                  yes
                           linear_solver = ma97                  yes
                              ma86_small = 1e-30                  no
                                  ma86_u = 0.0001                 no
                              ma97_order = best                  yes
                              ma97_small = 1e-30                 yes
                            ma97_switch1 = at_start              yes
                            ma97_switch2 = od_hd_reuse           yes
                                  ma97_u = 1e-06                 yes
                               ma97_umax = 0.5                   yes
                                max_iter = 1000                  yes
                    max_refinement_steps = 20                    yes
                    min_refinement_steps = 5                     yes
                                 mu_init = 1e-06                 yes
           mu_superlinear_decrease_power = 1.25                  yes
                   nlp_scaling_min_value = 1e-08                 yes
                        option_file_name = Preset_Case_311_pf.opt  yes
                             output_file = ./tmp/Preset_Case_311_pf.output  yes
                      print_user_options = yes                   yes
        required_infeasibility_reduction = 1                      no
                                     tol = 1e-08                 yes
                   warm_start_bound_frac = 1e-20                 yes
                   warm_start_bound_push = 1e-20                 yes
                   warm_start_init_point = yes                   yes
              warm_start_mult_bound_push = 1e-20                 yes
                warm_start_mult_init_max = 1e+40                 yes
             warm_start_slack_bound_frac = 1e-20                 yes
             warm_start_slack_bound_push = 1e-20                 yes

******************************************************************************
This program contains Ipopt, a library for large-scale nonlinear optimization.
 Ipopt is released as open source code under the Eclipse Public License (EPL).
         For more information visit http://projects.coin-or.org/Ipopt
******************************************************************************

This is Ipopt version 3.12.10, running with linear solver ma97.

Number of nonzeros in equality constraint Jacobian...:   123442
Number of nonzeros in inequality constraint Jacobian.:      213
Number of nonzeros in Lagrangian Hessian.............:    49069

Total number of variables............................:    31591
                     variables with only lower bounds:    12912
                variables with lower and upper bounds:    15130
                     variables with only upper bounds:        0
Total number of equality constraints.................:    31483
Total number of inequality constraints...............:       25
        inequality constraints with only lower bounds:        4
   inequality constraints with lower and upper bounds:        0
        inequality constraints with only upper bounds:       21

iter    objective    inf_pr   inf_du lg(mu)  ||d||  lg(rg) alpha_du alpha_pr  ls
   0 -5.2420871e+00 4.05e-03 1.02e+00  -6.0 0.00e+00    -  0.00e+00 0.00e+00   0
   1 -5.2416817e+00 1.44e-02 1.02e+00  -6.0 2.38e+05    -  1.46e-04 5.49e-05h  6
   2 -5.2433589e+00 1.44e-02 3.81e+01  -6.0 6.69e+03    -  1.68e-01 2.02e-03h  1
   3 -5.3939116e+00 3.10e+01 3.92e+02  -6.0 6.38e+03    -  1.65e-02 1.82e-01f  1
   4 -5.4422344e+00 4.88e+01 4.06e+02  -6.0 1.36e+04    -  6.66e-02 7.14e-02h  1
   5 -5.4447991e+00 7.09e+01 4.05e+02  -6.0 3.49e+05    -  3.43e-03 2.99e-03h  1
   6 -5.4472081e+00 7.09e+01 3.40e+03  -6.0 3.09e+04    -  1.96e-05 4.17e-03h  1
   7 -5.4464007e+00 6.30e+01 3.74e+05  -6.0 8.24e+00  -4.0 5.02e-05 1.11e-01h  1
   8 -5.4474736e+00 4.74e+01 2.81e+05  -6.0 9.88e+00  -4.5 1.87e-01 2.48e-01h  1
   9 -5.4517727e+00 3.74e+01 2.22e+05  -6.0 2.86e+01  -5.0 3.52e-01 2.11e-01h  1
iter    objective    inf_pr   inf_du lg(mu)  ||d||  lg(rg) alpha_du alpha_pr  ls
  10 -5.4653063e+00 2.98e+01 1.77e+05  -6.0 7.44e+01  -5.4 6.78e-02 2.03e-01h  1
  11 -5.6937194e+00 8.59e+00 5.09e+04  -6.0 6.79e+01  -5.9 5.80e-02 7.12e-01h  1
  12 -5.7042828e+00 6.63e+00 3.93e+04  -6.0 1.51e+02  -6.4 2.46e-01 2.27e-01h  1
  13 -5.7373422e+00 5.43e+00 3.21e+04  -6.0 2.49e+02  -6.9 1.26e-01 1.82e-01h  1
  14 -5.7964214e+00 3.36e+00 1.99e+04  -6.0 3.74e+02  -7.3 2.69e-01 3.81e-01h  1
  15 -5.8202619e+00 2.42e+00 1.43e+04  -6.0 4.17e+02  -7.8 4.06e-01 2.80e-01h  1
  16 -5.8314514e+00 2.09e+00 1.24e+04  -6.0 9.47e+02  -8.3 4.00e-01 1.37e-01h  1
  17 -5.8785401e+00 2.48e+01 2.20e+03  -6.0 1.51e+03  -8.8 6.70e-01 9.10e-01h  1
  18 -5.8803503e+00 2.10e+01 9.45e+02  -6.0 1.06e+03  -7.4 1.85e-01 1.53e-01h  1
  19 -5.8658080e+00 1.42e+00 1.98e+04  -6.0 2.22e+02  -7.9 5.98e-01 1.00e+00h  1
iter    objective    inf_pr   inf_du lg(mu)  ||d||  lg(rg) alpha_du alpha_pr  ls
  20 -5.8664357e+00 1.38e+00 1.54e+04  -6.0 3.72e+02  -6.6 5.42e-02 3.18e-02h  1
  21 -5.8720009e+00 1.05e+00 5.98e+03  -6.0 2.03e+02  -7.1 3.69e-01 3.32e-01h  1
  22 -5.8770524e+00 8.46e-01 1.81e+05  -6.0 1.92e+02  -7.5 1.00e+00 2.63e-01h  1
  23 -5.8893573e+00 7.51e-01 4.17e+04  -6.0 3.49e+02  -8.0 4.05e-01 5.72e-01h  1
  24 -5.8898653e+00 7.34e-01 2.70e+05  -6.0 4.05e+02  -8.5 8.37e-02 2.32e-02h  1
  25 -5.8898751e+00 7.34e-01 9.77e+04  -6.0 1.18e+03  -9.0 5.90e-01 2.46e-04h  1
  26 -5.8930549e+00 1.21e+00 8.00e+05  -6.0 2.88e+03  -9.5 2.89e-01 7.57e-02h  1
  27 -5.8992917e+00 6.61e+00 6.97e+05  -6.0 3.12e+03  -9.9 3.33e-01 1.72e-01h  1
  28 -5.9160375e+00 9.17e+00 3.55e+04  -6.0 1.52e+03  -9.5 6.46e-02 4.75e-01h  1
  29 -5.9188243e+00 1.02e+01 1.80e+05  -6.0 4.00e+03  -8.2 2.52e-02 7.59e-02h  1
iter    objective    inf_pr   inf_du lg(mu)  ||d||  lg(rg) alpha_du alpha_pr  ls
  30 -5.9233123e+00 9.19e+00 1.54e+05  -6.0 4.97e+02  -6.8 7.06e-04 9.95e-02h  1
  31r-5.9233123e+00 9.19e+00 1.00e+03   0.9 0.00e+00  -7.3 0.00e+00 5.58e-08R  2
  32r-5.9565571e+00 9.18e+00 1.00e+03   0.9 4.35e+04    -  3.94e-08 2.98e-07f  1
  33 -5.9554029e+00 8.88e+00 6.98e+03  -6.0 1.30e+02    -  4.73e-06 3.30e-02h  1
  34 -5.9525466e+00 8.14e+00 6.39e+03  -6.0 1.24e+02    -  1.18e-01 8.38e-02h  1
  35 -5.9454883e+00 6.31e+00 4.96e+03  -6.0 1.04e+02    -  1.49e-01 2.24e-01h  1
  36 -5.9326593e+00 3.04e+00 2.39e+03  -6.0 7.34e+01    -  4.46e-01 5.19e-01h  1
  37 -5.9279942e+00 1.87e+00 1.47e+03  -6.0 3.27e+01    -  7.85e-01 3.84e-01h  1
  38 -5.9208550e+00 2.94e-02 6.73e+00  -6.0 2.87e+01  -5.1 9.15e-01 1.00e+00h  1
  39 -5.9214180e+00 1.75e-02 1.76e+01  -6.0 1.24e+01    -  9.32e-01 4.07e-01h  1
iter    objective    inf_pr   inf_du lg(mu)  ||d||  lg(rg) alpha_du alpha_pr  ls
  40 -5.9222345e+00 2.66e-03 3.16e+00  -6.0 9.09e+00  -5.6 9.96e-01 1.00e+00f  1
  41 -5.9254252e+00 3.85e-01 1.21e+01  -6.0 9.90e+02    -  4.28e-01 1.44e-01h  2
  42 -5.9282373e+00 1.83e+00 1.41e+01  -6.0 1.47e+03    -  4.03e-01 1.88e-01h  2
  43 -5.9283452e+00 1.90e+00 4.78e+01  -6.0 5.67e+03    -  2.68e-01 1.12e-02h  6
  44 -5.9284152e+00 1.97e+00 5.32e+01  -6.0 9.40e+03    -  2.27e-02 6.74e-03h  6
  45 -5.9284334e+00 2.08e+00 6.75e+01  -6.0 2.08e+05    -  2.04e-03 3.52e-04h  6
  46 -5.9284359e+00 2.07e+00 3.20e+01  -6.0 1.63e+01  -6.0 8.82e-01 4.39e-03h  1
  47 -5.9296499e+00 4.79e-02 8.32e-01  -6.0 3.88e+01  -6.5 9.99e-01 1.00e+00h  1
  48 -5.9314778e+00 1.10e-01 4.20e-01  -6.0 5.89e+01  -7.0 1.00e+00 1.00e+00h  1
  49 -5.9315872e+00 9.30e-02 9.35e+00  -6.0 5.19e+01  -7.5 1.00e+00 1.83e-01h  1
iter    objective    inf_pr   inf_du lg(mu)  ||d||  lg(rg) alpha_du alpha_pr  ls
  50 -5.9320738e+00 2.94e-01 1.18e+00  -6.0 6.69e+01  -8.0 1.00e+00 1.00e+00h  1
  51 -5.9319382e+00 4.09e-01 2.88e-01  -6.0 1.45e+02  -8.4 1.00e+00 1.00e+00H  1
  52 -5.9321451e+00 6.61e-01 3.53e+00  -6.0 3.02e+02  -8.9 1.00e+00 6.14e-01h  1
  53 -5.9325287e+00 9.32e+00 7.81e+00  -6.0 6.74e+02  -9.4 5.17e-01 1.00e+00h  1
  54 -5.9326256e+00 2.35e+00 9.83e-01  -6.0 3.60e+02  -9.0 1.00e+00 1.00e+00h  1
  55 -5.9331180e+00 3.43e+01 2.09e+01  -6.0 1.04e+04    -  7.79e-02 1.26e-01h  1
  56 -5.9333971e+00 7.47e+01 7.58e+01  -6.0 2.37e+04    -  2.27e-05 1.26e-01H  1
  57 -5.9334565e+00 7.16e+01 9.79e+02  -6.0 5.36e+03    -  6.18e-02 6.53e-02h  1
  58 -5.9334595e+00 7.06e+01 9.69e+02  -6.0 1.46e+03    -  1.47e-02 1.41e-02h  1
  59 -5.9330904e+00 2.81e+01 7.04e+04  -6.0 1.24e+03    -  1.56e-01 8.27e-01h  1
iter    objective    inf_pr   inf_du lg(mu)  ||d||  lg(rg) alpha_du alpha_pr  ls
  60 -5.9339054e+00 1.86e+01 4.05e+04  -6.0 1.44e+03    -  8.51e-01 4.26e-01h  1
  61 -5.9334315e+00 7.58e+00 8.74e+02  -6.0 6.61e+02    -  5.38e-01 1.00e+00h  1
  62 -5.9333636e+00 5.22e+00 5.62e+02  -6.0 3.68e+02    -  1.00e+00 3.50e-01h  1
  63 -5.9332353e+00 1.07e+00 7.90e+00  -6.0 2.45e+02    -  1.00e+00 1.00e+00h  1
  64 -5.9332317e+00 2.63e-02 2.15e-02  -6.0 3.79e+01    -  1.00e+00 1.00e+00h  1
  65 -5.9332314e+00 2.13e-06 1.83e-06  -6.0 3.75e-01    -  1.00e+00 1.00e+00h  1
  66 -5.9333685e+00 3.21e+00 6.80e+01  -7.5 6.08e+02    -  5.21e-01 7.55e-01h  1
  67 -5.9333594e+00 7.75e-01 1.01e+01  -7.5 1.36e+02    -  9.74e-01 8.21e-01h  1
  68 -5.9333538e+00 1.01e-02 1.59e-02  -7.5 2.47e+01    -  1.00e+00 1.00e+00h  1
  69 -5.9333537e+00 8.30e-06 3.59e-06  -7.5 7.39e-01    -  1.00e+00 1.00e+00h  1
iter    objective    inf_pr   inf_du lg(mu)  ||d||  lg(rg) alpha_du alpha_pr  ls
  70 -5.9333537e+00 2.68e-10 6.21e-11  -7.5 2.33e-03    -  1.00e+00 1.00e+00h  1
  71 -5.9333552e+00 3.28e-03 9.13e-01  -9.0 1.75e+01    -  9.25e-01 8.26e-01h  1
  72 -5.9333555e+00 1.35e-04 8.75e-02  -9.0 2.94e+00    -  9.81e-01 1.00e+00h  1
  73 -5.9333555e+00 6.69e-10 4.06e-09  -9.0 6.66e-03    -  1.00e+00 1.00e+00h  1

Number of Iterations....: 73

                                   (scaled)                 (unscaled)
Objective...............:  -4.6354339810258525e+00   -5.9333554957130907e+00
Dual infeasibility......:   4.0581950402054197e-09    5.1944896514629374e-09
Constraint violation....:   5.3297446051493998e-10    6.6938810050487518e-10
Complementarity.........:   1.4530722506321886e-09    1.8599324808092015e-09
Overall NLP error.......:   4.0581950402054197e-09    5.1944896514629374e-09


Number of objective function evaluations             = 113
Number of objective gradient evaluations             = 74
Number of equality constraint evaluations            = 113
Number of inequality constraint evaluations          = 113
Number of equality constraint Jacobian evaluations   = 75
Number of inequality constraint Jacobian evaluations = 75
Number of Lagrangian Hessian evaluations             = 73
Total CPU secs in IPOPT (w/o function evaluations)   =    200.322
Total CPU secs in NLP function evaluations           =      4.924

EXIT: Optimal Solution Found.
